qbf_easy_train/easy_1540_SAT.qdimacs
p cnf 25 66
a 24 1 4 0
e 2 3 5 6 7 8 9 10 11 12 13 14 15 16 17 18 19 20 21 22 23 25 0
1 2 -3 0
-1 -2 -3 0
1 -2 3 0
-1 2 3 0
3 4 -5 0
-3 -4 -5 0
3 -4 5 0
-3 4 5 0
8 6 0
8 7 0
-6 -7 -8 0
-5 -8 -9 0
5 8 -9 0
-5 8 9 0
5 -8 9 0
11 10 0
11 4 0
-10 -4 -11 0
-12 11 0
-12 4 0
-11 -4 12 0
-13 -9 0
-13 12 0
9 -12 13 0
14 7 -15 0
-14 -7 -15 0
14 -7 15 0
-14 7 15 0
-15 -3 -16 0
15 3 -16 0
-15 3 16 0
15 -3 16 0
-17 13 0
-17 16 0
-13 -16 17 0
18 -14 -19 0
-18 14 -19 0
18 14 19 0
-18 -14 19 0
-20 -17 0
-20 -19 0
17 19 20 0
-21 -6 0
-21 -3 0
6 3 21 0
22 20 0
22 21 0
-20 -21 -22 0
1 15 -23 0
-1 -15 -23 0
1 -15 23 0
-1 15 23 0
-24 23 0
-24 10 0
-23 -10 24 0
22 24 -25 0
-22 -24 -25 0
22 -24 25 0
-22 24 25 0
-6 -23 -7 -12 4 3 -2 0
25 -16 -20 5 -23 9 0
6 -22 -23 11 25 -2 -9 -7 0
13 17 -2 -24 -18 -12 0
-12 10 11 0
-22 10 18 -13 8 -11 12 -9 0
25 0
