sat_easy_train/easy_1540_SAT.dimacs
p cnf 150 508
-1 2 -3 0
1 -2 -3 0
-1 -2 3 0
1 2 3 0
-5 3 0
-5 -4 0
-3 4 5 0
7 3 0
7 -6 0
-3 6 -7 0
8 5 0
8 7 0
-5 -7 -8 0
9 3 0
9 -6 0
-3 6 -9 0
8 9 -10 0
-8 -9 -10 0
8 -9 10 0
-8 9 10 0
12 10 0
12 -11 0
-10 11 -12 0
-15 13 0
-15 14 0
-13 -14 15 0
-17 -15 0
-17 -16 0
15 16 17 0
-16 -9 -18 0
16 9 -18 0
-16 9 18 0
16 -9 18 0
-19 17 0
-19 -18 0
-17 18 19 0
21 16 0
21 11 0
-16 -11 -21 0
-22 -20 0
-22 -21 0
20 21 22 0
-23 -19 0
-23 -22 0
19 22 23 0
24 12 0
24 23 0
-12 -23 -24 0
-27 25 0
-27 26 0
-25 -26 27 0
-27 26 -28 0
27 -26 -28 0
-27 -26 28 0
27 26 28 0
3 25 -29 0
-3 -25 -29 0
3 -25 29 0
-3 25 29 0
30 -20 0
30 -29 0
20 29 -30 0
-31 28 0
-31 -30 0
-28 30 31 0
-33 -7 0
-33 -2 0
7 2 33 0
34 32 0
34 -33 0
-32 33 -34 0
36 -35 0
36 -3 0
35 3 -36 0
-37 14 0
-37 15 0
-14 -15 37 0
38 -36 0
38 -37 0
36 37 -38 0
-39 6 0
-39 -13 0
-6 13 39 0
11 -39 -40 0
-11 39 -40 0
11 39 40 0
-11 -39 40 0
41 38 0
41 40 0
-38 -40 -41 0
2 26 -42 0
-2 -26 -42 0
2 -26 42 0
-2 26 42 0
-43 -36 0
-43 -42 0
36 42 43 0
44 -41 0
44 -43 0
41 43 -44 0
44 -26 -45 0
-44 26 -45 0
44 26 45 0
-44 -26 45 0
46 -34 0
46 45 0
34 -45 -46 0
-31 -46 -47 0
31 46 -47 0
-31 46 47 0
31 -46 47 0
48 -24 0
48 47 0
24 -47 -48 0
-4 49 -50 0
4 -49 -50 0
-4 -49 50 0
4 49 50 0
-51 -50 0
-51 29 0
50 -29 51 0
-51 -52 0
51 -52 0
-53 16 0
-53 -52 0
-16 52 53 0
54 -53 0
54 -1 0
53 1 -54 0
-55 20 0
-55 25 0
-20 -25 55 0
39 -55 -56 0
-39 55 -56 0
39 55 56 0
-39 -55 56 0
-57 -52 0
-57 -16 0
52 16 57 0
58 38 0
58 57 0
-38 -57 -58 0
-58 -59 0
58 -59 0
60 -21 0
60 11 0
21 -11 -60 0
-61 59 0
-61 60 0
-59 -60 61 0
-62 51 0
-62 38 0
-51 -38 62 0
63 -62 0
63 49 0
62 -49 -63 0
-64 61 0
-64 63 0
-61 -63 64 0
65 56 0
65 -64 0
-56 64 -65 0
-66 -54 0
-66 65 0
54 -65 66 0
-5 2 -67 0
5 -2 -67 0
-5 -2 67 0
5 2 67 0
67 68 0
-67 68 0
66 -68 -69 0
-66 68 -69 0
66 68 69 0
-66 -68 69 0
-17 29 -70 0
17 -29 -70 0
-17 -29 70 0
17 29 70 0
-71 70 0
-71 -39 0
-70 39 71 0
-72 -9 0
-72 71 0
9 -71 72 0
38 -3 -73 0
-38 3 -73 0
38 3 73 0
-38 -3 73 0
74 -73 0
74 -8 0
73 8 -74 0
75 -72 0
75 -74 0
72 74 -75 0
26 18 -76 0
-26 -18 -76 0
26 -18 76 0
-26 18 76 0
-77 -75 0
-77 -76 0
75 76 77 0
42 -78 -79 0
-42 78 -79 0
42 78 79 0
-42 -78 79 0
80 -9 0
80 79 0
9 -79 -80 0
-81 -43 0
-81 -80 0
43 80 81 0
-82 -63 0
-82 -3 0
63 3 82 0
83 21 0
83 -82 0
-21 82 -83 0
37 83 -84 0
-37 -83 -84 0
37 -83 84 0
-37 83 84 0
81 84 -85 0
-81 -84 -85 0
81 -84 85 0
-81 84 85 0
-77 -85 -86 0
77 85 -86 0
-77 85 86 0
77 -85 86 0
69 -86 -87 0
-69 86 -87 0
69 86 87 0
-69 -86 87 0
-88 -82 0
-88 67 0
82 -67 88 0
-13 -16 -89 0
13 16 -89 0
-13 16 89 0
13 -16 89 0
89 -9 -90 0
-89 9 -90 0
89 9 90 0
-89 -9 90 0
91 90 0
91 67 0
-90 -67 -91 0
92 -3 0
92 -42 0
3 42 -92 0
93 -92 0
93 55 0
92 -55 -93 0
28 -93 -94 0
-28 93 -94 0
28 93 94 0
-28 -93 94 0
-95 -91 0
-95 -94 0
91 94 95 0
-51 4 -96 0
51 -4 -96 0
-51 -4 96 0
51 4 96 0
97 41 0
97 11 0
-41 -11 -97 0
-64 -52 -98 0
64 52 -98 0
-64 52 98 0
64 -52 98 0
-99 97 0
-99 -98 0
-97 98 99 0
96 -99 -100 0
-96 99 -100 0
96 99 100 0
-96 -99 100 0
-101 95 0
-101 -100 0
-95 100 101 0
102 15 0
102 -36 0
-15 36 -102 0
-103 -102 0
-103 29 0
102 -29 103 0
-41 89 -104 0
41 -89 -104 0
-41 -89 104 0
41 89 104 0
105 104 0
105 17 0
-104 -17 -105 0
106 -103 0
106 105 0
103 -105 -106 0
-107 -101 0
-107 -106 0
101 106 107 0
-108 -88 0
-108 -107 0
88 107 108 0
-109 73 0
-109 82 0
-73 -82 109 0
110 27 0
110 -26 0
-27 26 -110 0
4 110 -111 0
-4 -110 -111 0
4 -110 111 0
-4 110 111 0
109 111 -112 0
-109 -111 -112 0
109 -111 112 0
-109 111 112 0
-108 -112 -113 0
108 112 -113 0
-108 112 113 0
108 -112 113 0
3 -58 -114 0
-3 58 -114 0
3 58 114 0
-3 -58 114 0
115 60 0
115 -10 0
-60 10 -115 0
116 114 0
116 -115 0
-114 115 -116 0
-36 -13 -117 0
36 13 -117 0
-36 13 117 0
36 -13 117 0
-118 116 0
-118 117 0
-116 -117 118 0
-119 -61 0
-119 45 0
61 -45 119 0
59 -119 -120 0
-59 119 -120 0
59 119 120 0
-59 -119 120 0
-121 102 0
-121 102 0
-102 121 0
-122 42 0
-122 -121 0
-42 121 122 0
123 120 0
123 -122 0
-120 122 -123 0
-118 123 -124 0
118 -123 -124 0
-118 -123 124 0
118 123 124 0
-125 113 0
-125 -124 0
-113 124 125 0
126 -87 0
126 -125 0
87 125 -126 0
127 -48 0
127 -126 0
48 126 -127 0
14 33 -128 0
-14 -33 -128 0
14 -33 128 0
-14 33 128 0
-129 128 0
-129 -59 0
-128 59 129 0
-32 129 -130 0
32 -129 -130 0
-32 -129 130 0
32 129 130 0
131 -89 0
131 -26 0
89 26 -131 0
-132 -130 0
-132 -131 0
130 131 132 0
-133 -30 0
-133 59 0
30 -59 133 0
-134 -132 0
-134 133 0
132 -133 134 0
-135 -42 0
-135 9 0
42 -9 135 0
-53 135 -136 0
53 -135 -136 0
-53 -135 136 0
53 135 136 0
-134 136 -137 0
134 -136 -137 0
-134 -136 137 0
134 136 137 0
-138 -60 0
-138 -90 0
60 90 138 0
-139 21 0
-139 90 0
-21 -90 139 0
140 53 0
140 11 0
-53 -11 -140 0
141 -139 0
141 140 0
139 -140 -141 0
142 25 0
142 -36 0
-25 36 -142 0
142 -39 -143 0
-142 39 -143 0
142 39 143 0
-142 -39 143 0
-141 -143 -144 0
141 143 -144 0
-141 143 144 0
141 -143 144 0
-145 -138 0
-145 -144 0
138 144 145 0
-146 20 -147 0
146 -20 -147 0
-146 -20 147 0
146 20 147 0
148 -145 0
148 -147 0
145 147 -148 0
-149 -137 0
-149 -148 0
137 148 149 0
-150 127 0
-150 -149 0
-127 149 150 0
-67 69 0
-107 15 86 -14 -109 21 0
-120 -38 121 -37 0
-58 -45 122 -62 55 -65 0
30 66 62 0
-22 -107 0
-108 133 0
-127 137 -4 105 -147 129 0
69 52 103 117 -144 0
-123 19 0
69 99 147 0
-107 16 137 37 -105 0
59 93 -16 -125 13 -61 0
44 -85 -119 118 112 0
-79 27 0
-103 59 -92 -72 0
111 26 60 140 84 0
116 99 -58 126 0
-89 57 70 133 6 0
-98 -92 -61 0
-106 -102 -68 -22 0
113 -44 128 0
-37 -117 -68 0
67 -30 116 57 -38 0
-86 53 133 9 117 96 0
123 -84 0
-121 127 -52 78 -45 -19 0
-65 8 0
-4 25 -26 114 0
110 4 -125 104 -100 94 0
-53 -64 13 121 117 -105 0
36 -15 94 -85 -99 -22 0
-43 -48 -52 106 0
122 106 -120 74 0
21 123 95 0
91 -29 92 -20 9 150 0
67 19 0
38 -84 85 22 -105 0
5 3 -149 61 0
-84 -62 0
-62 -21 40 96 0
-13 -85 -81 120 147 -32 0
-22 -118 -29 -128 0
-7 136 -94 -42 0
10 21 -139 -136 -39 0
49 -27 74 54 89 131 0
-135 31 -22 -120 64 128 0
-2 38 25 0
-9 -134 125 0
17 -53 0
42 75 0
-113 76 30 -110 -14 149 0
-124 -117 -123 0
87 64 -96 2 -89 15 0
131 -111 0
-9 20 -110 0
30 55 -73 -80 0
61 119 23 69 105 -104 0
-20 36 15 0
-110 -121 -19 -9 0
53 -84 76 -47 -124 -67 0
1 60 -103 150 0
42 146 -123 -6 -138 0
121 40 -146 -51 -61 124 0
144 -52 134 149 -20 0
-134 -71 22 -12 0
150 0
